c description: Random 3-CNF over 25 variables and 100 clauses
c generator: CNFgen (0.9.0)
c copyright: (C) 2012-2020 Massimo Lauria <massimo.lauria@uniroma1.it>
c url: https://massimolauria.net/cnfgen
c command line: cnfgen randkcnf 3 25 100
c
p cnf 25 100
-10 18 -21 0
-16 18 -22 0
-3 -15 -22 0
-1 3 22 0
-4 -5 -23 0
-6 -12 -14 0
-5 19 -21 0
1 -14 -18 0
8 -19 21 0
-6 -18 20 0
-9 15 -20 0
-11 17 -18 0
7 -9 24 0
-1 -6 19 0
11 19 -25 0
4 12 -15 0
-9 -11 14 0
5 17 20 0
10 -17 -24 0
-9 12 -14 0
1 -11 21 0
2 13 -23 0
-14 -15 -24 0
9 19 -24 0
-2 6 -14 0
2 -5 -15 0
-6 -8 -16 0
4 -8 11 0
11 12 18 0
-1 -11 -13 0
-3 11 25 0
3 -11 18 0
-2 -10 17 0
-1 -6 7 0
-8 -14 23 0
3 15 16 0
1 5 17 0
11 -12 18 0
9 -13 21 0
4 -11 -16 0
-16 22 24 0
-7 -24 25 0
5 -20 22 0
-8 18 22 0
13 -23 -24 0
5 9 -17 0
6 -16 -17 0
8 -12 -22 0
-9 10 -22 0
-8 -13 20 0
-19 -23 -24 0
2 11 24 0
-7 15 -25 0
15 -18 -23 0
-8 -10 14 0
3 -8 20 0
2 16 17 0
-17 23 -24 0
1 15 -24 0
-6 21 -25 0
3 10 20 0
2 6 -14 0
8 -10 -16 0
-7 8 -14 0
-5 -9 25 0
4 -14 -22 0
-12 -13 -24 0
-6 -22 23 0
4 5 22 0
-9 -21 -24 0
-2 -9 -23 0
-10 19 21 0
-8 17 -22 0
1 -4 -19 0
-13 -15 -18 0
-8 19 -25 0
5 10 16 0
-1 2 18 0
2 -13 17 0
-12 -20 -24 0
-2 -10 -25 0
4 -18 24 0
7 13 -22 0
2 -4 20 0
-1 -9 -21 0
-3 -18 25 0
-10 13 -17 0
-7 -13 21 0
-11 -16 22 0
8 12 18 0
-1 -11 -19 0
13 -18 -25 0
-9 19 -24 0
1 15 23 0
6 -14 15 0
-6 10 -13 0
2 10 14 0
14 21 -23 0
-9 -13 -16 0
-2 -10 -19 0
